
Gurobi 9.1.2 (win64, Java) logging started Sat Nov 13 11:08:42 2021

Academic license - for non-commercial use only - expires 2022-10-30
Gurobi Optimizer version 9.1.2 build v9.1.2rc0 (win64)
Thread count: 6 physical cores, 12 logical processors, using up to 12 threads
Optimize a model with 60 rows, 800 columns and 1600 nonzeros
Model fingerprint: 0xd72ac3cd
Variable types: 0 continuous, 800 integer (800 binary)
Coefficient statistics:
  Matrix range     [1e+00, 1e+03]
  Objective range  [2e+02, 9e+02]
  Bounds range     [1e+00, 1e+00]
  RHS range        [1e+00, 1e+03]
Found heuristic solution: objective 9061.0000000
Presolve removed 8 rows and 475 columns
Presolve time: 0.00s
Presolved: 52 rows, 325 columns, 650 nonzeros
Variable types: 0 continuous, 325 integer (325 binary)
Presolved: 52 rows, 325 columns, 650 nonzeros


Root relaxation: objective 1.209302e+04, 170 iterations, 0.00 seconds

    Nodes    |    Current Node    |     Objective Bounds      |     Work
 Expl Unexpl |  Obj  Depth IntInf | Incumbent    BestBd   Gap | It/Node Time

     0     0 12093.0243    0   11 9061.00000 12093.0243  33.5%     -    0s
H    0     0                    11543.000000 12093.0243  4.77%     -    0s
H    0     0                    11559.000000 12093.0243  4.62%     -    0s
H    0     0                    11581.000000 12093.0243  4.42%     -    0s
     0     0 12037.4190    0   21 11581.0000 12037.4190  3.94%     -    0s
H    0     0                    11913.000000 12037.4190  1.04%     -    0s
     0     0 11978.4355    0   30 11913.0000 11978.4355  0.55%     -    0s
     0     0 11975.7138    0   32 11913.0000 11975.7138  0.53%     -    0s
     0     0 11956.2665    0   15 11913.0000 11956.2665  0.36%     -    0s
     0     0 11956.2665    0   11 11913.0000 11956.2665  0.36%     -    0s
     0     0 11956.2665    0   21 11913.0000 11956.2665  0.36%     -    0s
     0     0 11949.1141    0   22 11913.0000 11949.1141  0.30%     -    0s
     0     0 11932.8332    0   30 11913.0000 11932.8332  0.17%     -    0s
     0     0 11931.9106    0   24 11913.0000 11931.9106  0.16%     -    0s
     0     0 11931.9106    0   11 11913.0000 11931.9106  0.16%     -    0s
     0     0 11931.9106    0   17 11913.0000 11931.9106  0.16%     -    0s
     0     0 11931.9106    0   17 11913.0000 11931.9106  0.16%     -    0s
     0     0 11931.9106    0   26 11913.0000 11931.9106  0.16%     -    0s
     0     0 11931.4196    0   27 11913.0000 11931.4196  0.15%     -    0s
     0     0     cutoff    0      11913.0000 11913.0000  0.00%     -    0s

Cutting planes:
  Gomory: 23
  Cover: 13
  MIR: 8
  StrongCG: 6
  Zero half: 1

Explored 1 nodes (608 simplex iterations) in 0.09 seconds
Thread count was 12 (of 12 available processors)

Solution count 5: 11913 11581 11559 ... 9061

Optimal solution found (tolerance 1.00e-12)
Best objective 1.191300000000e+04, best bound 1.191300000000e+04, gap 0.0000%
